161 137 133 41 96 155 145 184 97 83 93 89 142 48 75 32 188 127 58 103 67 171 132 135 147 56 63 92 10 34 50 8 196 178 45 26 79 12 170 57 101 24 94 114 113 14 29 191 120 40 23 51 73 168 112 5 37 104 70 182 60 16 109 30 198 192 138 102 9 125 148 0 20 52 149 179 197 167 49 163 43 118 85 106 116 84 115 166 86 1 154 3 18 81 186 95 4 130 74 175 36 121 7 61 71 181 150 189 65 107 46 177 99 54 19 31 172 21 162 47 151 44 140 152 66 187 105 193 78 62 39 108 173 176 38 27 117 68 136 183 33 174 72 53 159 91 123 55 88 119 157 77 64 11 141 195 98 131 158 126 129 160 17 153 156 194 100 139 144 111 199 87 128 82 110 22 146 143 59 122 28 76 13 190 180 90 134 69 169 185 164 165 124 25 35 6 80 15 2 42